archive/demo_outputs/rsa_demo_benchmark_output/64/certs/0018.assert.smt2
; benchmark generated from python API
(set-info :status unknown)
(declare-fun p () Int)
(declare-fun q () Int)
(declare-fun n () Int)
(assert
 (= p 2255827781))
(assert
 (= q 2551875251))
(assert
 (= n 5756591084852148031))
(assert
 (let ((?x31 (* p q)))
 (= ?x31 n)))
(assert
 (> p 1))
(assert
 (> q 1))
(check-sat)
